840.02 0
0 31 88 62 10 63 90 32 30 70 1 69 27 0
0 92 37 100 91 44 14 38 86 16 61 93 99 96 6 0
0 40 73 74 22 41 23 67 39 56 75 72 21 0
0 89 60 83 8 46 45 17 84 5 85 98 59 94 0
0 52 7 19 11 64 49 36 47 48 82 18 0
0 53 58 2 57 15 43 42 87 97 95 13 0
0 12 80 68 77 3 79 29 24 54 55 25 4 26 0
0 50 33 81 9 51 20 66 65 71 35 34 78 76 28 0
